(declare-fun temp360_1 () (_ BitVec 64))
(declare-fun var77203 () (_ BitVec 64))
(declare-fun var210653 () (_ BitVec 64))
(declare-fun var210913 () (_ BitVec 64))
(declare-fun temp360_2 () (_ BitVec 64))
(declare-fun var210940 () (_ BitVec 64))
(declare-fun ARGNAME_weight_NAMEEND_DIM () (_ BitVec 64))
(declare-fun temp360_3 () (_ BitVec 64))
(declare-fun temp360_4 () (_ BitVec 64))
(declare-fun var210941 () (_ BitVec 64))
(declare-fun k!0 () Bool)
(declare-fun temp360_5 () (_ BitVec 64))
(declare-fun ARGNAME_groups_NAMEEND () (_ BitVec 64))
(declare-fun var210986 () (_ BitVec 64))
(declare-fun temp360_6 () (_ BitVec 64))
(declare-fun ARGNAME_stride_NAMEEND_LEN () (_ BitVec 64))
(declare-fun ARGNAME_padding_NAMEEND_LEN () (_ BitVec 64))
(declare-fun ARGNAME_dilation_NAMEEND_LEN () (_ BitVec 64))
(declare-fun ARGNAME_output_padding_NAMEEND_LEN () (_ BitVec 64))
(declare-fun temp360_7 () (_ BitVec 64))
(declare-fun temp360_8 () (_ BitVec 64))
(declare-fun ARGNAME_padding_NAMEEND_VAL () (Array (_ BitVec 64) (_ BitVec 64)))
(declare-fun temp360_9 () (_ BitVec 64))
(declare-fun temp360_10 () (_ BitVec 64))
(declare-fun temp360_11 () (_ BitVec 64))
(declare-fun temp360_12 () (_ BitVec 64))
(declare-fun temp360_13 () (_ BitVec 64))
(declare-fun temp360_14 () (_ BitVec 64))
(declare-fun temp360_15 () (_ BitVec 64))
(declare-fun temp360_16 () (_ BitVec 64))
(declare-fun temp360_17 () (_ BitVec 64))
(declare-fun temp360_18 () (_ BitVec 64))
(declare-fun temp360_19 () (_ BitVec 64))
(declare-fun temp360_20 () (_ BitVec 64))
(declare-fun temp360_21 () (_ BitVec 64))
(declare-fun temp360_22 () (_ BitVec 64))
(declare-fun temp360_23 () (_ BitVec 64))
(declare-fun temp360_24 () (_ BitVec 64))
(declare-fun temp360_25 () (_ BitVec 64))
(declare-fun temp360_26 () (_ BitVec 64))
(declare-fun temp360_27 () (_ BitVec 64))
(declare-fun temp360_28 () (_ BitVec 64))
(declare-fun temp360_29 () (_ BitVec 64))
(declare-fun temp360_30 () (_ BitVec 64))
(declare-fun temp360_31 () (_ BitVec 64))
(declare-fun temp360_32 () (_ BitVec 64))
(declare-fun temp360_33 () (_ BitVec 64))
(declare-fun temp360_34 () (_ BitVec 64))
(declare-fun temp360_35 () (_ BitVec 64))
(declare-fun temp360_36 () (_ BitVec 64))
(declare-fun temp360_37 () (_ BitVec 64))
(declare-fun temp360_38 () (_ BitVec 64))
(declare-fun temp360_39 () (_ BitVec 64))
(declare-fun temp360_40 () (_ BitVec 64))
(declare-fun temp360_41 () (_ BitVec 64))
(declare-fun temp360_42 () (_ BitVec 64))
(declare-fun temp360_43 () (_ BitVec 64))
(declare-fun temp360_44 () (_ BitVec 64))
(declare-fun temp360_45 () (_ BitVec 64))
(declare-fun temp360_46 () (_ BitVec 64))
(declare-fun temp360_47 () (_ BitVec 64))
(declare-fun temp360_48 () (_ BitVec 64))
(declare-fun var1191714 () (_ BitVec 64))
(declare-fun temp360_49 () (_ BitVec 64))
(declare-fun temp360_50 () (_ BitVec 64))
(declare-fun temp360_51 () (_ BitVec 64))
(declare-fun ARGNAME_output_padding_NAMEEND_VAL
             ()
             (Array (_ BitVec 64) (_ BitVec 64)))
(declare-fun temp360_52 () (_ BitVec 64))
(declare-fun temp360_53 () (_ BitVec 64))
(declare-fun temp360_54 () (_ BitVec 64))
(declare-fun temp360_55 () (_ BitVec 64))
(declare-fun temp360_56 () (_ BitVec 64))
(declare-fun temp360_57 () (_ BitVec 64))
(declare-fun temp360_58 () (_ BitVec 64))
(declare-fun temp360_59 () (_ BitVec 64))
(declare-fun temp360_60 () (_ BitVec 64))
(declare-fun temp360_61 () (_ BitVec 64))
(declare-fun temp360_62 () (_ BitVec 64))
(declare-fun temp360_63 () (_ BitVec 64))
(declare-fun temp360_64 () (_ BitVec 64))
(declare-fun temp360_65 () (_ BitVec 64))
(declare-fun temp360_66 () (_ BitVec 64))
(declare-fun temp360_67 () (_ BitVec 64))
(declare-fun temp360_68 () (_ BitVec 64))
(declare-fun temp360_69 () (_ BitVec 64))
(declare-fun temp360_70 () (_ BitVec 64))
(declare-fun temp360_71 () (_ BitVec 64))
(declare-fun temp360_72 () (_ BitVec 64))
(declare-fun temp360_73 () (_ BitVec 64))
(declare-fun temp360_74 () (_ BitVec 64))
(declare-fun temp360_75 () (_ BitVec 64))
(declare-fun temp360_76 () (_ BitVec 64))
(declare-fun temp360_77 () (_ BitVec 64))
(declare-fun temp360_78 () (_ BitVec 64))
(declare-fun temp360_79 () (_ BitVec 64))
(declare-fun temp360_80 () (_ BitVec 64))
(declare-fun temp360_81 () (_ BitVec 64))
(declare-fun temp360_82 () (_ BitVec 64))
(declare-fun temp360_83 () (_ BitVec 64))
(declare-fun temp360_84 () (_ BitVec 64))
(declare-fun temp360_85 () (_ BitVec 64))
(declare-fun temp360_86 () (_ BitVec 64))
(declare-fun temp360_87 () (_ BitVec 64))
(declare-fun temp360_88 () (_ BitVec 64))
(declare-fun temp360_89 () (_ BitVec 64))
(declare-fun temp360_90 () (_ BitVec 64))
(declare-fun temp360_91 () (_ BitVec 64))
(declare-fun var1191725 () (_ BitVec 64))
(declare-fun temp360_92 () (_ BitVec 64))
(declare-fun temp360_93 () (_ BitVec 64))
(declare-fun temp360_94 () (_ BitVec 64))
(declare-fun ARGNAME_stride_NAMEEND_VAL () (Array (_ BitVec 64) (_ BitVec 64)))
(declare-fun temp360_95 () (_ BitVec 64))
(declare-fun temp360_96 () (_ BitVec 64))
(declare-fun temp360_97 () (_ BitVec 64))
(declare-fun temp360_98 () (_ BitVec 64))
(declare-fun temp360_99 () (_ BitVec 64))
(declare-fun temp360_100 () (_ BitVec 64))
(declare-fun temp360_101 () (_ BitVec 64))
(declare-fun temp360_102 () (_ BitVec 64))
(declare-fun temp360_103 () (_ BitVec 64))
(declare-fun temp360_104 () (_ BitVec 64))
(declare-fun temp360_105 () (_ BitVec 64))
(declare-fun temp360_106 () (_ BitVec 64))
(declare-fun temp360_107 () (_ BitVec 64))
(declare-fun temp360_108 () (_ BitVec 64))
(declare-fun temp360_109 () (_ BitVec 64))
(declare-fun temp360_110 () (_ BitVec 64))
(declare-fun temp360_111 () (_ BitVec 64))
(declare-fun temp360_112 () (_ BitVec 64))
(declare-fun temp360_113 () (_ BitVec 64))
(declare-fun temp360_114 () (_ BitVec 64))
(declare-fun temp360_115 () (_ BitVec 64))
(declare-fun temp360_116 () (_ BitVec 64))
(declare-fun temp360_117 () (_ BitVec 64))
(declare-fun temp360_118 () (_ BitVec 64))
(declare-fun temp360_119 () (_ BitVec 64))
(declare-fun temp360_120 () (_ BitVec 64))
(declare-fun temp360_121 () (_ BitVec 64))
(declare-fun temp360_122 () (_ BitVec 64))
(declare-fun temp360_123 () (_ BitVec 64))
(declare-fun temp360_124 () (_ BitVec 64))
(declare-fun temp360_125 () (_ BitVec 64))
(declare-fun temp360_126 () (_ BitVec 64))
(declare-fun temp360_127 () (_ BitVec 64))
(declare-fun temp360_128 () (_ BitVec 64))
(declare-fun temp360_129 () (_ BitVec 64))
(declare-fun temp360_130 () (_ BitVec 64))
(declare-fun temp360_131 () (_ BitVec 64))
(declare-fun temp360_132 () (_ BitVec 64))
(declare-fun temp360_133 () (_ BitVec 64))
(declare-fun temp360_134 () (_ BitVec 64))
(declare-fun var1191735 () (_ BitVec 64))
(declare-fun temp360_135 () (_ BitVec 64))
(declare-fun ARGNAME_input_NAMEEND_DIM () (_ BitVec 64))
(declare-fun var1191747 () (_ BitVec 64))
(declare-fun temp360_136 () (_ BitVec 64))
(declare-fun temp360_137 () (_ BitVec 64))
(declare-fun var1179826 () (_ BitVec 64))
(declare-fun temp360_138 () (_ BitVec 64))
(declare-fun temp360_139 () (_ BitVec 64))
(declare-fun ARGNAME_weight_NAMEEND_DIMSIZE
             ()
             (Array (_ BitVec 64) (_ BitVec 64)))
(declare-fun temp360_140 () (_ BitVec 64))
(declare-fun temp360_141 () (_ BitVec 64))
(declare-fun temp360_142 () (_ BitVec 64))
(declare-fun temp360_143 () (_ BitVec 64))
(declare-fun temp360_144 () (_ BitVec 64))
(declare-fun temp360_145 () (_ BitVec 64))
(declare-fun temp360_146 () (_ BitVec 64))
(declare-fun temp360_147 () (_ BitVec 64))
(declare-fun temp360_148 () (_ BitVec 64))
(declare-fun temp360_149 () (_ BitVec 64))
(declare-fun temp360_150 () (_ BitVec 64))
(declare-fun temp360_151 () (_ BitVec 64))
(declare-fun temp360_152 () (_ BitVec 64))
(declare-fun temp360_153 () (_ BitVec 64))
(declare-fun temp360_154 () (_ BitVec 64))
(declare-fun temp360_155 () (_ BitVec 64))
(declare-fun temp360_157 () (_ BitVec 64))
(declare-fun temp360_158 () (_ BitVec 64))
(declare-fun temp360_156 () (_ BitVec 64))
(declare-fun var1191780 () (_ BitVec 64))
(declare-fun temp360_159 () (_ BitVec 64))
(declare-fun temp360_160 () (_ BitVec 64))
(declare-fun temp360_162 () (_ BitVec 64))
(declare-fun temp360_163 () (_ BitVec 64))
(declare-fun temp360_161 () (_ BitVec 64))
(declare-fun var1191802 () (_ BitVec 64))
(declare-fun temp360_164 () (_ BitVec 64))
(declare-fun var1191803 () (_ BitVec 64))
(declare-fun temp360_165 () (_ BitVec 64))
(declare-fun temp360_166 () (_ BitVec 64))
(declare-fun ARGNAME_transposed_NAMEEND () (_ BitVec 64))
(declare-fun var1191823 () (_ BitVec 64))
(declare-fun temp360_167 () (_ BitVec 64))
(declare-fun temp360_168 () (_ BitVec 64))
(declare-fun var1180714 () (_ BitVec 64))
(declare-fun temp360_169 () (_ BitVec 64))
(declare-fun temp360_170 () (_ BitVec 64))
(declare-fun ARGNAME_input_NAMEEND_DIMSIZE
             ()
             (Array (_ BitVec 64) (_ BitVec 64)))
(declare-fun temp360_171 () (_ BitVec 64))
(declare-fun temp360_172 () (_ BitVec 64))
(declare-fun temp360_173 () (_ BitVec 64))
(declare-fun temp360_174 () (_ BitVec 64))
(declare-fun temp360_175 () (_ BitVec 64))
(declare-fun temp360_176 () (_ BitVec 64))
(declare-fun temp360_177 () (_ BitVec 64))
(declare-fun temp360_178 () (_ BitVec 64))
(declare-fun temp360_179 () (_ BitVec 64))
(declare-fun temp360_180 () (_ BitVec 64))
(declare-fun temp360_181 () (_ BitVec 64))
(declare-fun temp360_182 () (_ BitVec 64))
(declare-fun temp360_183 () (_ BitVec 64))
(declare-fun temp360_184 () (_ BitVec 64))
(declare-fun temp360_185 () (_ BitVec 64))
(declare-fun temp360_186 () (_ BitVec 64))
(declare-fun temp360_187 () (_ BitVec 64))
(declare-fun temp360_188 () (_ BitVec 64))
(declare-fun temp360_189 () (_ BitVec 64))
(declare-fun var1191831 () (_ BitVec 64))
(declare-fun temp360_190 () (_ BitVec 64))
(declare-fun temp360_192 () (_ BitVec 64))
(declare-fun temp360_193 () (_ BitVec 64))
(declare-fun temp360_191 () (_ BitVec 64))
(declare-fun var1191835 () (_ BitVec 64))
(declare-fun var1191836 () (_ BitVec 64))
(declare-fun temp360_194 () (_ BitVec 64))
(declare-fun temp360_195 () (_ BitVec 64))
(declare-fun temp360_197 () (_ BitVec 64))
(declare-fun temp360_198 () (_ BitVec 64))
(declare-fun temp360_196 () (_ BitVec 64))
(declare-fun temp360_199 () (_ BitVec 64))
(declare-fun var1586025 () (_ BitVec 64))
(declare-fun var1586034 () (_ BitVec 64))
(declare-fun var1717312 () (_ BitVec 64))
(declare-fun temp360_200 () (_ BitVec 64))
(declare-fun var1191993 () (_ BitVec 64))
(declare-fun temp360_201 () (_ BitVec 64))
(declare-fun var2700303 () (_ BitVec 64))
(declare-fun temp360_202 () (_ BitVec 64))
(declare-fun var2962447 () (_ BitVec 64))
(declare-fun temp360_203 () (_ BitVec 64))
(declare-fun var211058 () (_ BitVec 64))
(declare-fun temp360_204 () (_ BitVec 64))
(declare-fun temp360_205 () (_ BitVec 64))
(declare-fun var211188 () (_ BitVec 64))
(declare-fun var3879401 () (_ BitVec 64))
(declare-fun temp360_206 () (_ BitVec 64))
(declare-fun var3866802 () (_ BitVec 64))
(declare-fun temp360_207 () (_ BitVec 64))
(declare-fun temp360_208 () (_ BitVec 64))
(declare-fun temp360_209 () (_ BitVec 64))
(declare-fun var3879420 () (_ BitVec 64))
(declare-fun temp360_210 () (_ BitVec 64))
(declare-fun var3879421 () (_ BitVec 64))
(declare-fun temp360_211 () (_ BitVec 64))
(declare-fun temp360_212 () (_ BitVec 64))
(declare-fun var4079423 () (_ BitVec 64))
(declare-fun var4079425 () (_ BitVec 64))
(declare-fun var4079382 () (_ BitVec 64))
(declare-fun var211201 () (_ BitVec 64))
(declare-fun temp360_213 () (_ BitVec 64))
(declare-fun var4208259 () (_ BitVec 64))
(declare-fun var4208261 () (_ BitVec 64))
(declare-fun var4273804 () (_ BitVec 64))
(declare-fun var4273805 () (_ BitVec 64))
(declare-fun var4273818 () (_ BitVec 64))
(declare-fun var4273820 () (_ BitVec 64))
(declare-fun temp360_214 () (_ BitVec 64))
(declare-fun var4273845 () (_ BitVec 64))
(declare-fun var4273847 () (_ BitVec 64))
(declare-fun var4394835 () (_ BitVec 64))
(declare-fun var5583248 () (_ BitVec 64))
(declare-fun var5845392 () (_ BitVec 64))
(declare-fun temp360_215 () (_ BitVec 64))
(declare-fun var6173072 () (_ BitVec 64))
(declare-fun temp360_216 () (_ BitVec 64))
(assert (= temp360_1 #x0000000000000001))
(assert (= var77203 temp360_1))
(assert (= var210653 var77203))
(assert (= var210913 var210653))
(assert (= temp360_2 #xfffffffffffffffe))
(assert (= var210940 (bvadd ARGNAME_weight_NAMEEND_DIM temp360_2)))
(assert (= temp360_3 #x0000000000000003))
(assert (= var210941
   (ite (bvslt ARGNAME_weight_NAMEEND_DIM temp360_3)
        #x0000000000000001
        #x0000000000000000)))
(assert (= temp360_4 #x0000000000000000))
(assert (= var210941 temp360_4))
(assert (= temp360_5 #x0000000000000001))
(assert (= var210986
   (ite (bvslt ARGNAME_groups_NAMEEND temp360_5)
        #x0000000000000001
        #x0000000000000000)))
(assert (= temp360_6 #x0000000000000000))
(assert (= var210986 temp360_6))
(assert (= ARGNAME_stride_NAMEEND_LEN var210940))
(assert (= ARGNAME_padding_NAMEEND_LEN var210940))
(assert (= ARGNAME_dilation_NAMEEND_LEN var210940))
(assert (= ARGNAME_output_padding_NAMEEND_LEN var210940))
(assert (= temp360_7 #x0000000000000000))
(assert (= temp360_8 temp360_7))
(assert (= temp360_9 (select ARGNAME_padding_NAMEEND_VAL temp360_8)))
(assert (= temp360_10 #x0000000000000001))
(assert (= temp360_11 temp360_10))
(assert (= temp360_12 (select ARGNAME_padding_NAMEEND_VAL temp360_11)))
(assert (= temp360_13 #x0000000000000002))
(assert (= temp360_14 temp360_13))
(assert (= temp360_15 (select ARGNAME_padding_NAMEEND_VAL temp360_14)))
(assert (= temp360_16 #x0000000000000003))
(assert (= temp360_17 temp360_16))
(assert (= temp360_18 (select ARGNAME_padding_NAMEEND_VAL temp360_17)))
(assert (= temp360_19 #x0000000000000004))
(assert (= temp360_20 temp360_19))
(assert (= temp360_21 (select ARGNAME_padding_NAMEEND_VAL temp360_20)))
(assert (= temp360_22 #x0000000000000005))
(assert (= temp360_23 temp360_22))
(assert (= temp360_24 (select ARGNAME_padding_NAMEEND_VAL temp360_23)))
(assert (= temp360_25 #x0000000000000000))
(assert (= temp360_26 #x0000000000000000))
(assert (= temp360_27 temp360_26))
(assert (= temp360_28 (select ARGNAME_padding_NAMEEND_VAL temp360_27)))
(assert (= temp360_29 #x0000000000000000))
(assert (= temp360_30 #x0000000000000001))
(assert (= temp360_31 temp360_30))
(assert (= temp360_32 (select ARGNAME_padding_NAMEEND_VAL temp360_31)))
(assert (= temp360_33 #x0000000000000000))
(assert (= temp360_34 #x0000000000000002))
(assert (= temp360_35 temp360_34))
(assert (= temp360_36 (select ARGNAME_padding_NAMEEND_VAL temp360_35)))
(assert (= temp360_37 #x0000000000000000))
(assert (= temp360_38 #x0000000000000003))
(assert (= temp360_39 temp360_38))
(assert (= temp360_40 (select ARGNAME_padding_NAMEEND_VAL temp360_39)))
(assert (= temp360_41 #x0000000000000000))
(assert (= temp360_42 #x0000000000000004))
(assert (= temp360_43 temp360_42))
(assert (= temp360_44 (select ARGNAME_padding_NAMEEND_VAL temp360_43)))
(assert (= temp360_45 #x0000000000000000))
(assert (= temp360_46 #x0000000000000005))
(assert (= temp360_47 temp360_46))
(assert (= temp360_48 (select ARGNAME_padding_NAMEEND_VAL temp360_47)))
(assert (= var1191714
   (ite (and true
             (bvslt temp360_28 temp360_25)
             (bvslt temp360_32 temp360_29)
             (bvslt temp360_36 temp360_33)
             (bvslt temp360_40 temp360_37)
             (bvslt temp360_44 temp360_41)
             (bvslt temp360_48 temp360_45))
        #x0000000000000001
        #x0000000000000000)))
(assert (= temp360_49 #x0000000000000000))
(assert (= var1191714 temp360_49))
(assert (= temp360_50 #x0000000000000000))
(assert (= temp360_51 temp360_50))
(assert (= temp360_52 (select ARGNAME_output_padding_NAMEEND_VAL temp360_51)))
(assert (= temp360_53 #x0000000000000001))
(assert (= temp360_54 temp360_53))
(assert (= temp360_55 (select ARGNAME_output_padding_NAMEEND_VAL temp360_54)))
(assert (= temp360_56 #x0000000000000002))
(assert (= temp360_57 temp360_56))
(assert (= temp360_58 (select ARGNAME_output_padding_NAMEEND_VAL temp360_57)))
(assert (= temp360_59 #x0000000000000003))
(assert (= temp360_60 temp360_59))
(assert (= temp360_61 (select ARGNAME_output_padding_NAMEEND_VAL temp360_60)))
(assert (= temp360_62 #x0000000000000004))
(assert (= temp360_63 temp360_62))
(assert (= temp360_64 (select ARGNAME_output_padding_NAMEEND_VAL temp360_63)))
(assert (= temp360_65 #x0000000000000005))
(assert (= temp360_66 temp360_65))
(assert (= temp360_67 (select ARGNAME_output_padding_NAMEEND_VAL temp360_66)))
(assert (= temp360_68 #x0000000000000000))
(assert (= temp360_69 #x0000000000000000))
(assert (= temp360_70 temp360_69))
(assert (= temp360_71 (select ARGNAME_output_padding_NAMEEND_VAL temp360_70)))
(assert (= temp360_72 #x0000000000000000))
(assert (= temp360_73 #x0000000000000001))
(assert (= temp360_74 temp360_73))
(assert (= temp360_75 (select ARGNAME_output_padding_NAMEEND_VAL temp360_74)))
(assert (= temp360_76 #x0000000000000000))
(assert (= temp360_77 #x0000000000000002))
(assert (= temp360_78 temp360_77))
(assert (= temp360_79 (select ARGNAME_output_padding_NAMEEND_VAL temp360_78)))
(assert (= temp360_80 #x0000000000000000))
(assert (= temp360_81 #x0000000000000003))
(assert (= temp360_82 temp360_81))
(assert (= temp360_83 (select ARGNAME_output_padding_NAMEEND_VAL temp360_82)))
(assert (= temp360_84 #x0000000000000000))
(assert (= temp360_85 #x0000000000000004))
(assert (= temp360_86 temp360_85))
(assert (= temp360_87 (select ARGNAME_output_padding_NAMEEND_VAL temp360_86)))
(assert (= temp360_88 #x0000000000000000))
(assert (= temp360_89 #x0000000000000005))
(assert (= temp360_90 temp360_89))
(assert (= temp360_91 (select ARGNAME_output_padding_NAMEEND_VAL temp360_90)))
(assert (= var1191725
   (ite (and true
             (bvslt temp360_71 temp360_68)
             (bvslt temp360_75 temp360_72)
             (bvslt temp360_79 temp360_76)
             (bvslt temp360_83 temp360_80)
             (bvslt temp360_87 temp360_84)
             (bvslt temp360_91 temp360_88))
        #x0000000000000001
        #x0000000000000000)))
(assert (= temp360_92 #x0000000000000000))
(assert (= var1191725 temp360_92))
(assert (= temp360_93 #x0000000000000000))
(assert (= temp360_94 temp360_93))
(assert (= temp360_95 (select ARGNAME_stride_NAMEEND_VAL temp360_94)))
(assert (= temp360_96 #x0000000000000001))
(assert (= temp360_97 temp360_96))
(assert (= temp360_98 (select ARGNAME_stride_NAMEEND_VAL temp360_97)))
(assert (= temp360_99 #x0000000000000002))
(assert (= temp360_100 temp360_99))
(assert (= temp360_101 (select ARGNAME_stride_NAMEEND_VAL temp360_100)))
(assert (= temp360_102 #x0000000000000003))
(assert (= temp360_103 temp360_102))
(assert (= temp360_104 (select ARGNAME_stride_NAMEEND_VAL temp360_103)))
(assert (= temp360_105 #x0000000000000004))
(assert (= temp360_106 temp360_105))
(assert (= temp360_107 (select ARGNAME_stride_NAMEEND_VAL temp360_106)))
(assert (= temp360_108 #x0000000000000005))
(assert (= temp360_109 temp360_108))
(assert (= temp360_110 (select ARGNAME_stride_NAMEEND_VAL temp360_109)))
(assert (= temp360_111 #x0000000000000000))
(assert (= temp360_112 #x0000000000000000))
(assert (= temp360_113 temp360_112))
(assert (= temp360_114 (select ARGNAME_stride_NAMEEND_VAL temp360_113)))
(assert (= temp360_115 #x0000000000000000))
(assert (= temp360_116 #x0000000000000001))
(assert (= temp360_117 temp360_116))
(assert (= temp360_118 (select ARGNAME_stride_NAMEEND_VAL temp360_117)))
(assert (= temp360_119 #x0000000000000000))
(assert (= temp360_120 #x0000000000000002))
(assert (= temp360_121 temp360_120))
(assert (= temp360_122 (select ARGNAME_stride_NAMEEND_VAL temp360_121)))
(assert (= temp360_123 #x0000000000000000))
(assert (= temp360_124 #x0000000000000003))
(assert (= temp360_125 temp360_124))
(assert (= temp360_126 (select ARGNAME_stride_NAMEEND_VAL temp360_125)))
(assert (= temp360_127 #x0000000000000000))
(assert (= temp360_128 #x0000000000000004))
(assert (= temp360_129 temp360_128))
(assert (= temp360_130 (select ARGNAME_stride_NAMEEND_VAL temp360_129)))
(assert (= temp360_131 #x0000000000000000))
(assert (= temp360_132 #x0000000000000005))
(assert (= temp360_133 temp360_132))
(assert (= temp360_134 (select ARGNAME_stride_NAMEEND_VAL temp360_133)))
(assert (= var1191735
   (ite (and true
             (bvsle temp360_114 temp360_111)
             (bvsle temp360_118 temp360_115)
             (bvsle temp360_122 temp360_119)
             (bvsle temp360_126 temp360_123)
             (bvsle temp360_130 temp360_127)
             (bvsle temp360_134 temp360_131))
        #x0000000000000001
        #x0000000000000000)))
(assert (= temp360_135 #x0000000000000000))
(assert (= var1191735 temp360_135))
(assert (= var1191747
   (ite (= ARGNAME_weight_NAMEEND_DIM ARGNAME_input_NAMEEND_DIM)
        #x0000000000000001
        #x0000000000000000)))
(assert (= temp360_136 #x0000000000000001))
(assert (= var1191747 temp360_136))
(assert (= temp360_137 #x0000000000000000))
(assert (= var1179826 temp360_137))
(assert (= temp360_138 #x0000000000000000))
(assert (= temp360_139 temp360_138))
(assert (= temp360_140 (select ARGNAME_weight_NAMEEND_DIMSIZE temp360_139)))
(assert (= temp360_141 #x0000000000000001))
(assert (= temp360_142 temp360_141))
(assert (= temp360_143 (select ARGNAME_weight_NAMEEND_DIMSIZE temp360_142)))
(assert (= temp360_144 #x0000000000000002))
(assert (= temp360_145 temp360_144))
(assert (= temp360_146 (select ARGNAME_weight_NAMEEND_DIMSIZE temp360_145)))
(assert (= temp360_147 #x0000000000000003))
(assert (= temp360_148 temp360_147))
(assert (= temp360_149 (select ARGNAME_weight_NAMEEND_DIMSIZE temp360_148)))
(assert (= temp360_150 #x0000000000000004))
(assert (= temp360_151 temp360_150))
(assert (= temp360_152 (select ARGNAME_weight_NAMEEND_DIMSIZE temp360_151)))
(assert (= temp360_153 #x0000000000000005))
(assert (= temp360_154 temp360_153))
(assert (= temp360_155 (select ARGNAME_weight_NAMEEND_DIMSIZE temp360_154)))
(assert (= temp360_157 var1179826))
(assert (= temp360_158 (select ARGNAME_weight_NAMEEND_DIMSIZE temp360_157)))
(assert (= temp360_156 temp360_158))
(assert (= var1191780
   (ite (bvslt temp360_156 ARGNAME_groups_NAMEEND)
        #x0000000000000001
        #x0000000000000000)))
(assert (= temp360_159 #x0000000000000000))
(assert (= var1191780 temp360_159))
(assert (= temp360_160 #x0000000000000000))
(assert (= var1179826 temp360_160))
(assert (= temp360_162 var1179826))
(assert (= temp360_163 (select ARGNAME_weight_NAMEEND_DIMSIZE temp360_162)))
(assert (= temp360_161 temp360_163))
(assert (= var1191802 (bvsmod temp360_161 ARGNAME_groups_NAMEEND)))
(assert (= temp360_164 #x0000000000000000))
(assert (= var1191803
   (ite (= var1191802 temp360_164) #x0000000000000001 #x0000000000000000)))
(assert (= temp360_165 #x0000000000000001))
(assert (= var1191803 temp360_165))
(assert (= temp360_166 #x0000000000000000))
(assert (= var1191823
   (ite (= ARGNAME_transposed_NAMEEND temp360_166)
        #x0000000000000001
        #x0000000000000000)))
(assert (= temp360_167 #x0000000000000001))
(assert (= var1191823 temp360_167))
(assert (= temp360_168 #x0000000000000001))
(assert (= var1180714 temp360_168))
(assert (= temp360_169 #x0000000000000000))
(assert (= temp360_170 temp360_169))
(assert (= temp360_171 (select ARGNAME_input_NAMEEND_DIMSIZE temp360_170)))
(assert (= temp360_172 #x0000000000000001))
(assert (= temp360_173 temp360_172))
(assert (= temp360_174 (select ARGNAME_input_NAMEEND_DIMSIZE temp360_173)))
(assert (= temp360_175 #x0000000000000002))
(assert (= temp360_176 temp360_175))
(assert (= temp360_177 (select ARGNAME_input_NAMEEND_DIMSIZE temp360_176)))
(assert (= temp360_178 #x0000000000000003))
(assert (= temp360_179 temp360_178))
(assert (= temp360_180 (select ARGNAME_input_NAMEEND_DIMSIZE temp360_179)))
(assert (= temp360_181 #x0000000000000004))
(assert (= temp360_182 temp360_181))
(assert (= temp360_183 (select ARGNAME_input_NAMEEND_DIMSIZE temp360_182)))
(assert (= temp360_184 #x0000000000000005))
(assert (= temp360_185 temp360_184))
(assert (= temp360_186 (select ARGNAME_input_NAMEEND_DIMSIZE temp360_185)))
(assert (= temp360_187 #x0000000000000000))
(assert (= temp360_188
   (ite (bvslt var1180714 temp360_187)
        (bvadd ARGNAME_input_NAMEEND_DIM var1180714)
        var1180714)))
(assert (= temp360_189 (select ARGNAME_input_NAMEEND_DIMSIZE temp360_188)))
(assert (= var1191831 temp360_189))
(assert (bvslt (ite (bvslt var1180714 temp360_187)
            (bvadd ARGNAME_input_NAMEEND_DIM var1180714)
            var1180714)
       ARGNAME_input_NAMEEND_DIM))
(assert (= temp360_190 #x0000000000000001))
(assert (= var1180714 temp360_190))
(assert (= temp360_192 var1180714))
(assert (= temp360_193 (select ARGNAME_weight_NAMEEND_DIMSIZE temp360_192)))
(assert (= temp360_191 temp360_193))
(assert (= var1191835 (bvmul ARGNAME_groups_NAMEEND temp360_191)))
(assert (= var1191836
   (ite (= var1191831 var1191835) #x0000000000000001 #x0000000000000000)))
(assert (= temp360_194 #x0000000000000001))
(assert (= var1191836 temp360_194))
(assert (= temp360_195 #x0000000000000000))
(assert (= var1179826 temp360_195))
(assert (= temp360_197 var1179826))
(assert (= temp360_198 (select ARGNAME_weight_NAMEEND_DIMSIZE temp360_197)))
(assert (= temp360_196 temp360_198))
(assert (= temp360_199 #x0000000000000002))
(assert (= var1586025 temp360_199))
(assert (= var1586034 var1586025))
(assert (= var1717312 var1586034))
(assert (= temp360_200 #x0000000000000001))
(assert (= var1191993 temp360_200))
(assert (= temp360_201 #x0000000000000001))
(assert (= var2700303 temp360_201))
(assert (= temp360_202 #x0000000000000001))
(assert (= var2962447 temp360_202))
(assert (= temp360_203 #x0000000000000003))
(assert (= var211058
   (ite (= ARGNAME_weight_NAMEEND_DIM temp360_203)
        #x0000000000000001
        #x0000000000000000)))
(assert (= temp360_204 #x0000000000000001))
(assert (= var211058 temp360_204))
(assert (= temp360_205 #x0000000000000001))
(assert (= var211188 temp360_205))
(assert (= var3879401 var211188))
(assert (= temp360_206 #x0000000000000000))
(assert (= var3866802 temp360_206))
(assert (= temp360_207 #x0000000000000000))
(assert (= temp360_208
   (ite (bvslt var3866802 temp360_207)
        (bvadd ARGNAME_input_NAMEEND_DIM var3866802)
        var3866802)))
(assert (= temp360_209 (select ARGNAME_input_NAMEEND_DIMSIZE temp360_208)))
(assert (= var3879420 temp360_209))
(assert (bvslt (ite (bvslt var3866802 temp360_207)
            (bvadd ARGNAME_input_NAMEEND_DIM var3866802)
            var3866802)
       ARGNAME_input_NAMEEND_DIM))
(assert (= temp360_210 #x0000000000000000))
(assert (= var3879421
   (ite (= var3879420 temp360_210) #x0000000000000001 #x0000000000000000)))
(assert (= temp360_211 #x0000000000000001))
(assert (= var3879421 temp360_211))
(assert (= temp360_212 #x0000000000000000))
(assert (= var4079423 temp360_212))
(assert (= var4079425 var4079423))
(assert (= var4079382 var4079425))
(assert (= var211201 var4079382))
(assert (= temp360_213 #x0000000000000002))
(assert (= var4208259 temp360_213))
(assert (= var4208261 (bvsub ARGNAME_weight_NAMEEND_DIM var4208259)))
(assert (= var4273804 var4208259))
(assert (= var4273805 var4208261))
(assert (= var4273818 (bvadd var4273805 var4273804)))
(assert (= var4273820
   (ite (bvsgt var4273818 ARGNAME_weight_NAMEEND_DIM)
        #x0000000000000001
        #x0000000000000000)))
(assert (= temp360_214 #x0000000000000000))
(assert (= var4273820 temp360_214))
(assert (= var4273845 var4273804))
(assert (= var4273847 var4273805))
(assert (= var4394835 var4273847))
(assert (= var5583248 var211201))
(assert (= var5845392 var211201))
(assert (= temp360_215 #x0000000000000000))
(assert (= var6173072 temp360_215))
(assert (= temp360_216 #x0000000000000001))
(assert (= var211058 temp360_216))
(model-add temp360_1 () (_ BitVec 64) #x0000000000000001)
(model-add var77203 () (_ BitVec 64) #x0000000000000001)
(model-add var210653 () (_ BitVec 64) #x0000000000000001)
(model-add var210913 () (_ BitVec 64) #x0000000000000001)
(model-add temp360_2 () (_ BitVec 64) #xfffffffffffffffe)
(model-add var210940
           ()
           (_ BitVec 64)
           (bvadd #xfffffffffffffffe ARGNAME_weight_NAMEEND_DIM))
(model-add temp360_3 () (_ BitVec 64) #x0000000000000003)
(model-add temp360_4 () (_ BitVec 64) #x0000000000000000)
(model-add var210941 () (_ BitVec 64) #x0000000000000000)
(model-del k!0)
(model-add ARGNAME_weight_NAMEEND_DIM
           ()
           (_ BitVec 64)
           (ite (or k!0 (= #x0000000000000003 #x8000000000000000))
                #x0000000000000003
                (bvsub #x0000000000000003 #x0000000000000001)))





